============================[ Problem Statistics ]=============================|                                                                             ||  Number of variables:          4242                                         ||  Number of clauses:           10339                                         ||  Parse time:                   0.72 s                                       ||                                                                             |============================[ Search Statistics ]==============================| Conflicts |          ORIGINAL         |          LEARNT          | Progress ||           |    Vars  Clauses Literals |    Limit  Clauses Lit/Cl |          |===============================================================================|       100 |    1591     6544  1158905 |     2399      100     53 | 62.501 % ||       250 |    1591     6544  1158905 |     2639      250     75 | 62.495 % |===============================================================================restarts              : 3conflicts             : 394            (360 /sec)decisions             : 660            (0.00 % random) (603 /sec)propagations          : 12046          (11001 /sec)conflict literals     : 32614          (94.56 % deleted)CPU time              : 1.095 sSATISFIABLE